set VV := 0 1 2 3 4 5 ;
set VS := 0 1 2 3 4 5 6 7 8 9 10 11 12 13 14 15 ;
param cv := 
0 12
1 11
2 20
3 10
4 21
5 15
;
param cs := 
0 33
1 32
2 27
3 40
4 25
5 26
6 35
7 35
8 23
9 29
10 28
11 23
12 34
13 24
14 28
15 21
;
param bv:	 0 1 2 3 4 5 := 
		0 0 0 0 0 0 11 
		1 0 0 0 0 0 23 
		2 0 0 0 20 0 12 
		3 0 0 0 0 0 0 
		4 0 0 0 0 0 20 
		5 0 0 0 0 0 0 
;
param bs:	 0 1 2 3 4 5 6 7 8 9 10 11 12 13 14 15 := 
		0 0 0 0 0 0 0 0 22 0 0 0 0 0 0 0 0 
		1 0 0 0 28 0 0 0 0 0 28 0 0 0 0 0 0 
		2 0 0 0 0 34 0 23 0 0 0 0 0 0 35 0 0 
		3 0 28 0 0 0 0 0 0 0 0 0 35 0 0 0 0 
		4 0 0 34 0 0 0 0 0 0 0 0 0 0 33 0 0 
		5 0 0 0 0 0 0 0 0 0 0 25 0 24 0 39 0 
		6 0 0 23 0 0 0 0 0 0 0 0 0 31 0 0 0 
		7 22 0 0 0 0 0 0 0 0 0 0 0 38 0 0 0 
		8 0 0 0 0 0 0 0 0 0 30 0 0 0 0 0 0 
		9 0 28 0 0 0 0 0 0 30 0 0 0 0 38 0 0 
		10 0 0 0 0 0 25 0 0 0 0 0 0 34 0 0 35 
		11 0 0 0 35 0 0 0 0 0 0 0 0 0 0 0 0 
		12 0 0 0 0 0 24 31 38 0 0 34 0 0 0 39 0 
		13 0 0 35 0 33 0 0 0 0 38 0 0 0 0 0 0 
		14 0 0 0 0 0 39 0 0 0 0 0 0 39 0 0 0 
		15 0 0 0 0 0 0 0 0 0 0 35 0 0 0 0 0 
;
